experiment/data/lkh-res/Vrp-Set-D-n242/Vrp-Set-D-n242-lkh/0.lkh1.vrp
NAME : 0
COMMENT : CVRP Instance
TYPE : CVRP
DIMENSION : 242
EDGE_WEIGHT_TYPE : EUC_2D
CAPACITY : 125
NODE_COORD_SECTION
1	86400	5200
2	16400	33900
3	78000	54000
4	42800	30000
5	16000	78600
6	9500	81100
7	53100	35100
8	70500	23200
9	64000	35500
10	30400	34900
11	700	95500
12	26400	33200
13	26000	82600
14	44300	29400
15	66800	34600
16	47200	36500
17	44200	35500
18	62300	36700
19	45400	36100
20	48900	42600
21	44100	42300
22	48100	44800
23	65800	18600
24	69500	32300
25	13300	71500
26	54900	39200
27	85200	24000
28	44700	47300
29	41400	42600
30	42700	33500
31	75500	30400
32	10200	94400
33	44800	38000
34	44300	53400
35	12300	91800
36	64500	35300
37	39500	39400
38	68600	29000
39	0	93800
40	64400	37300
41	25300	39300
42	33300	27300
43	23000	35200
44	17800	36300
45	75800	18800
46	16600	34800
47	74000	24400
48	61700	64500
49	43000	48300
50	35800	29300
51	40100	43600
52	35400	47500
53	38100	44700
54	29100	32800
55	32200	37000
56	30100	32800
57	12600	92600
58	75100	29900
59	32900	46100
60	34300	46400
61	76100	31100
62	49700	47300
63	30900	38300
64	80900	23000
65	81400	31000
66	44200	48300
67	72300	33200
68	89100	17300
69	79900	28600
70	23500	50400
71	23500	52600
72	19600	34100
73	73000	32800
74	68000	29200
75	63600	67900
76	19700	41000
77	12700	39700
78	71100	14900
79	5700	91500
80	14200	41700
81	13200	42400
82	57100	39100
83	35600	34800
84	70300	23300
85	6600	90600
86	45000	43600
87	38800	47800
88	68100	25800
89	67200	27900
90	70000	29100
91	17100	99900
92	73300	51800
93	79600	20400
94	66900	28100
95	63100	27400
96	83900	16400
97	14400	97700
98	81800	18200
99	44000	42800
100	53500	74100
101	66800	32700
102	64000	28300
103	34400	47300
104	63300	30600
105	4900	87900
106	61000	29500
107	63500	30100
108	62000	31500
109	65800	38400
110	84000	20400
111	40700	78900
112	64700	26000
113	78000	15200
114	27900	35400
115	44000	50100
116	83300	19900
117	30700	35400
118	8500	87200
119	63600	34700
120	45800	38600
121	60500	31400
122	67300	61300
123	68400	20700
124	65400	29700
125	66400	27800
126	62900	58600
127	4100	74600
128	66700	25800
129	77700	16400
130	57600	43200
131	63000	27500
132	60800	31600
133	69100	56800
134	56700	32100
135	56300	37500
136	87700	14700
137	61300	41100
138	36500	58900
139	64400	27100
140	86500	13400
141	42800	37500
142	59100	28900
143	83200	16700
144	84700	14400
145	57900	30500
146	20800	40500
147	62100	44000
148	53800	32100
149	65500	26500
150	57100	31400
151	60500	29200
152	64500	30000
153	61700	31500
154	59300	31800
155	57200	32900
156	66500	25400
157	57200	33200
158	85700	16900
159	69900	43600
160	63400	40700
161	57400	53200
162	85700	11500
163	87900	12100
164	48700	33700
165	54500	32600
166	59400	28400
167	47900	34600
168	53600	30400
169	59200	28900
170	91600	11400
171	57000	31900
172	78400	15700
173	94300	11300
174	19800	76800
175	90400	9200
176	88800	12800
177	97400	2500
178	76200	17200
179	65300	44000
180	51600	40000
181	48800	29800
182	97600	4100
183	60500	49500
184	58100	48200
185	54500	50200
186	49400	39500
187	20500	87000
188	81700	10500
189	69000	30600
190	21200	82600
191	49600	27700
192	60300	35400
193	70900	16800
194	57800	38000
195	55400	29700
196	63800	38100
197	18800	85200
198	78100	12400
199	45500	61300
200	20700	59600
201	46800	46500
202	77000	22500
203	63500	16500
204	54600	39800
205	75100	28500
206	62600	32800
207	84200	16900
208	68900	46200
209	62800	36700
210	58900	40600
211	3200	100000
212	58700	52900
213	52800	40700
214	45600	32900
215	57500	53000
216	100000	0
217	55800	28600
218	54400	32400
219	37100	61900
220	29100	33700
221	900	88200
222	15100	80500
223	32300	79900
224	55800	40800
225	14200	45000
226	53900	41700
227	45900	69800
228	37700	33200
229	28300	72900
230	77800	19500
231	86800	25000
232	64600	49700
233	48800	40700
234	54400	42100
235	50900	40300
236	45400	28900
237	48700	24400
238	13800	42900
239	52300	50100
240	26800	36800
241	49000	43800
242	50300	25000
DEMAND_SECTION
1	0
2	7
3	7
4	4
5	5
6	4
7	4
8	9
9	5
10	4
11	4
12	12
13	4
14	9
15	4
16	10
17	7
18	7
19	5
20	7
21	9
22	6
23	5
24	10
25	6
26	3
27	4
28	4
29	6
30	4
31	4
32	8
33	5
34	9
35	3
36	5
37	8
38	12
39	5
40	12
41	8
42	7
43	9
44	5
45	3
46	4
47	4
48	5
49	3
50	4
51	5
52	4
53	8
54	6
55	4
56	7
57	7
58	5
59	4
60	5
61	5
62	5
63	7
64	4
65	7
66	5
67	4
68	4
69	12
70	9
71	6
72	7
73	4
74	6
75	5
76	4
77	6
78	7
79	5
80	5
81	4
82	4
83	6
84	6
85	3
86	7
87	6
88	7
89	5
90	5
91	6
92	7
93	5
94	4
95	4
96	4
97	5
98	6
99	4
100	8
101	4
102	5
103	6
104	8
105	10
106	12
107	4
108	3
109	6
110	4
111	4
112	3
113	5
114	4
115	4
116	5
117	6
118	4
119	6
120	7
121	6
122	8
123	5
124	4
125	4
126	4
127	7
128	8
129	6
130	5
131	6
132	13
133	15
134	7
135	9
136	4
137	4
138	7
139	4
140	5
141	5
142	8
143	5
144	7
145	5
146	4
147	4
148	4
149	3
150	7
151	5
152	6
153	7
154	7
155	11
156	6
157	4
158	8
159	7
160	4
161	9
162	14
163	6
164	3
165	3
166	10
167	5
168	5
169	6
170	6
171	8
172	5
173	6
174	6
175	5
176	11
177	4
178	10
179	8
180	10
181	5
182	17
183	5
184	6
185	3
186	5
187	11
188	5
189	5
190	9
191	6
192	9
193	7
194	5
195	7
196	4
197	6
198	12
199	8
200	6
201	7
202	7
203	6
204	6
205	4
206	11
207	3
208	5
209	4
210	5
211	5
212	4
213	2
214	8
215	9
216	4
217	6
218	7
219	4
220	4
221	5
222	5
223	5
224	5
225	5
226	3
227	7
228	8
229	4
230	6
231	6
232	12
233	8
234	7
235	7
236	14
237	10
238	5
239	6
240	5
241	4
242	8
DEPOT_SECTION
1
-1
EOF
