experiment/data/lkh-res/Vrp-Set-D-n242/Vrp-Set-D-n242-lkh/0.lkh1.log
PARAMETER_FILE = baseline_results/cvrp_lkh/Vrp-Set-D-n242/Vrp-Set-D-n242-lkh/0.lkh1.par
Reading PROBLEM_FILE: "baseline_results/cvrp_lkh/Vrp-Set-D-n242/Vrp-Set-D-n242-lkh/0.lkh1.vrp" ... done
ASCENT_CANDIDATES = 50
BACKBONE_TRIALS = 0
BACKTRACKING = NO
# BWTSP =
# CANDIDATE_FILE =
CANDIDATE_SET_TYPE = ALPHA
# DISTANCE =
DEPOT = 1
# EDGE_FILE =
EXCESS = 0.00413223
EXTERNAL_SALESMEN = 0
EXTRA_CANDIDATES = 0 
EXTRA_CANDIDATE_SET_TYPE = QUADRANT
GAIN23 = NO
GAIN_CRITERION = YES
INITIAL_PERIOD = 121
INITIAL_STEP_SIZE = 1
INITIAL_TOUR_ALGORITHM = WALK
# INITIAL_TOUR_FILE = 
INITIAL_TOUR_FRACTION = 1.000
# INPUT_TOUR_FILE = 
KICK_TYPE = 4
KICKS = 1
# MAX_BREADTH =
MAKESPAN = NO
MAX_CANDIDATES = 5 
MAX_SWAPS = 0
MAX_TRIALS = 10000
# MERGE_TOUR_FILE =
MOVE_TYPE = 5 SPECIAL
MTSP_MIN_SIZE = 1
MTSP_MAX_SIZE = 241
# MTSP_SOLUTION_FILE = 
# NONSEQUENTIAL_MOVE_TYPE = 5
# OPTIMUM =
OUTPUT_TOUR_FILE = baseline_results/cvrp_lkh/Vrp-Set-D-n242/Vrp-Set-D-n242-lkh/0.lkh1.tour
PATCHING_A = 1 
PATCHING_C = 0 
# PI_FILE = 
POPMUSIC_INITIAL_TOUR = NO
POPMUSIC_MAX_NEIGHBORS = 5
POPMUSIC_SAMPLE_SIZE = 10
POPMUSIC_SOLUTIONS = 50
POPMUSIC_TRIALS = 1
POPULATION_SIZE = 10
PRECISION = 100
PROBLEM_FILE = baseline_results/cvrp_lkh/Vrp-Set-D-n242/Vrp-Set-D-n242-lkh/0.lkh1.vrp
RECOMBINATION = IPT
RESTRICTED_SEARCH = YES
RUNS = 1
SALESMEN = 12
SCALE = 1
SEED = 1234
# SINTEF_SOLUTION_FILE = 
STOP_AT_OPTIMUM = YES
SUBGRADIENT = YES
# SUBPROBLEM_SIZE =
# SUBPROBLEM_TOUR_FILE = 
SUBSEQUENT_MOVE_TYPE = 5 SPECIAL
SUBSEQUENT_PATCHING = YES
# TIME_LIMIT =
# TOTAL_TIME_LIMIT =
# TOUR_FILE = 
TRACE_LEVEL = 1
VEHICLES = 12

Lower bound = 886212.0, Ascent time = 0.11 sec.
Cand.min = 3, Cand.avg = 5.0, Cand.max = 5
Preprocessing time = 0.12 sec.
* 1: Cost = 0_1792032, Time = 0.15 sec. 
Writing OUTPUT_TOUR_FILE: "baseline_results/cvrp_lkh/Vrp-Set-D-n242/Vrp-Set-D-n242-lkh/0.lkh1.tour" ... done
* 3: Cost = 0_1790008, Time = 0.17 sec. 
Writing OUTPUT_TOUR_FILE: "baseline_results/cvrp_lkh/Vrp-Set-D-n242/Vrp-Set-D-n242-lkh/0.lkh1.tour" ... done
* 4: Cost = 0_1789893, Time = 0.17 sec. 
Writing OUTPUT_TOUR_FILE: "baseline_results/cvrp_lkh/Vrp-Set-D-n242/Vrp-Set-D-n242-lkh/0.lkh1.tour" ... done
* 6: Cost = 0_1786566, Time = 0.18 sec. 
Writing OUTPUT_TOUR_FILE: "baseline_results/cvrp_lkh/Vrp-Set-D-n242/Vrp-Set-D-n242-lkh/0.lkh1.tour" ... done
* 11: Cost = 0_1775941, Time = 0.25 sec. 
Writing OUTPUT_TOUR_FILE: "baseline_results/cvrp_lkh/Vrp-Set-D-n242/Vrp-Set-D-n242-lkh/0.lkh1.tour" ... done
* 15: Cost = 0_1769655, Time = 0.32 sec. 
Writing OUTPUT_TOUR_FILE: "baseline_results/cvrp_lkh/Vrp-Set-D-n242/Vrp-Set-D-n242-lkh/0.lkh1.tour" ... done
* 19: Cost = 0_1769369, Time = 0.37 sec. 
Writing OUTPUT_TOUR_FILE: "baseline_results/cvrp_lkh/Vrp-Set-D-n242/Vrp-Set-D-n242-lkh/0.lkh1.tour" ... done
* 27: Cost = 0_1766211, Time = 0.54 sec. 
Writing OUTPUT_TOUR_FILE: "baseline_results/cvrp_lkh/Vrp-Set-D-n242/Vrp-Set-D-n242-lkh/0.lkh1.tour" ... done
* 28: Cost = 0_1761218, Time = 0.57 sec. 
Writing OUTPUT_TOUR_FILE: "baseline_results/cvrp_lkh/Vrp-Set-D-n242/Vrp-Set-D-n242-lkh/0.lkh1.tour" ... done
* 29: Cost = 0_1758313, Time = 0.58 sec. 
Writing OUTPUT_TOUR_FILE: "baseline_results/cvrp_lkh/Vrp-Set-D-n242/Vrp-Set-D-n242-lkh/0.lkh1.tour" ... done
* 30: Cost = 0_1758048, Time = 0.58 sec. 
Writing OUTPUT_TOUR_FILE: "baseline_results/cvrp_lkh/Vrp-Set-D-n242/Vrp-Set-D-n242-lkh/0.lkh1.tour" ... done
* 32: Cost = 0_1755145, Time = 0.60 sec. 
Writing OUTPUT_TOUR_FILE: "baseline_results/cvrp_lkh/Vrp-Set-D-n242/Vrp-Set-D-n242-lkh/0.lkh1.tour" ... done
* 33: Cost = 0_1751778, Time = 0.62 sec. 
Writing OUTPUT_TOUR_FILE: "baseline_results/cvrp_lkh/Vrp-Set-D-n242/Vrp-Set-D-n242-lkh/0.lkh1.tour" ... done
* 34: Cost = 0_1749184, Time = 0.64 sec. 
Writing OUTPUT_TOUR_FILE: "baseline_results/cvrp_lkh/Vrp-Set-D-n242/Vrp-Set-D-n242-lkh/0.lkh1.tour" ... done
* 39: Cost = 0_1748399, Time = 0.76 sec. 
Writing OUTPUT_TOUR_FILE: "baseline_results/cvrp_lkh/Vrp-Set-D-n242/Vrp-Set-D-n242-lkh/0.lkh1.tour" ... done
* 41: Cost = 0_1744271, Time = 0.77 sec. 
Writing OUTPUT_TOUR_FILE: "baseline_results/cvrp_lkh/Vrp-Set-D-n242/Vrp-Set-D-n242-lkh/0.lkh1.tour" ... done
* 43: Cost = 0_1743252, Time = 0.80 sec. 
Writing OUTPUT_TOUR_FILE: "baseline_results/cvrp_lkh/Vrp-Set-D-n242/Vrp-Set-D-n242-lkh/0.lkh1.tour" ... done
* 46: Cost = 0_1742231, Time = 0.89 sec. 
Writing OUTPUT_TOUR_FILE: "baseline_results/cvrp_lkh/Vrp-Set-D-n242/Vrp-Set-D-n242-lkh/0.lkh1.tour" ... done
* 53: Cost = 0_1741749, Time = 1.00 sec. 
Writing OUTPUT_TOUR_FILE: "baseline_results/cvrp_lkh/Vrp-Set-D-n242/Vrp-Set-D-n242-lkh/0.lkh1.tour" ... done
* 61: Cost = 0_1737070, Time = 1.10 sec. 
Writing OUTPUT_TOUR_FILE: "baseline_results/cvrp_lkh/Vrp-Set-D-n242/Vrp-Set-D-n242-lkh/0.lkh1.tour" ... done
* 63: Cost = 0_1736810, Time = 1.11 sec. 
Writing OUTPUT_TOUR_FILE: "baseline_results/cvrp_lkh/Vrp-Set-D-n242/Vrp-Set-D-n242-lkh/0.lkh1.tour" ... done
* 65: Cost = 0_1734936, Time = 1.13 sec. 
Writing OUTPUT_TOUR_FILE: "baseline_results/cvrp_lkh/Vrp-Set-D-n242/Vrp-Set-D-n242-lkh/0.lkh1.tour" ... done
* 67: Cost = 0_1733390, Time = 1.17 sec. 
Writing OUTPUT_TOUR_FILE: "baseline_results/cvrp_lkh/Vrp-Set-D-n242/Vrp-Set-D-n242-lkh/0.lkh1.tour" ... done
* 68: Cost = 0_1732916, Time = 1.17 sec. 
Writing OUTPUT_TOUR_FILE: "baseline_results/cvrp_lkh/Vrp-Set-D-n242/Vrp-Set-D-n242-lkh/0.lkh1.tour" ... done
* 69: Cost = 0_1730681, Time = 1.19 sec. 
Writing OUTPUT_TOUR_FILE: "baseline_results/cvrp_lkh/Vrp-Set-D-n242/Vrp-Set-D-n242-lkh/0.lkh1.tour" ... done
* 74: Cost = 0_1730363, Time = 1.24 sec. 
Writing OUTPUT_TOUR_FILE: "baseline_results/cvrp_lkh/Vrp-Set-D-n242/Vrp-Set-D-n242-lkh/0.lkh1.tour" ... done
* 81: Cost = 0_1730126, Time = 1.29 sec. 
Writing OUTPUT_TOUR_FILE: "baseline_results/cvrp_lkh/Vrp-Set-D-n242/Vrp-Set-D-n242-lkh/0.lkh1.tour" ... done
* 103: Cost = 0_1727296, Time = 1.58 sec. 
Writing OUTPUT_TOUR_FILE: "baseline_results/cvrp_lkh/Vrp-Set-D-n242/Vrp-Set-D-n242-lkh/0.lkh1.tour" ... done
* 121: Cost = 0_1727264, Time = 1.77 sec. 
Writing OUTPUT_TOUR_FILE: "baseline_results/cvrp_lkh/Vrp-Set-D-n242/Vrp-Set-D-n242-lkh/0.lkh1.tour" ... done
* 124: Cost = 0_1725493, Time = 1.87 sec. 
Writing OUTPUT_TOUR_FILE: "baseline_results/cvrp_lkh/Vrp-Set-D-n242/Vrp-Set-D-n242-lkh/0.lkh1.tour" ... done
* 142: Cost = 0_1724572, Time = 2.22 sec. 
Writing OUTPUT_TOUR_FILE: "baseline_results/cvrp_lkh/Vrp-Set-D-n242/Vrp-Set-D-n242-lkh/0.lkh1.tour" ... done
* 156: Cost = 0_1724248, Time = 2.60 sec. 
Writing OUTPUT_TOUR_FILE: "baseline_results/cvrp_lkh/Vrp-Set-D-n242/Vrp-Set-D-n242-lkh/0.lkh1.tour" ... done
* 163: Cost = 0_1724021, Time = 2.70 sec. 
Writing OUTPUT_TOUR_FILE: "baseline_results/cvrp_lkh/Vrp-Set-D-n242/Vrp-Set-D-n242-lkh/0.lkh1.tour" ... done
* 194: Cost = 0_1716723, Time = 3.20 sec. 
Writing OUTPUT_TOUR_FILE: "baseline_results/cvrp_lkh/Vrp-Set-D-n242/Vrp-Set-D-n242-lkh/0.lkh1.tour" ... done
* 205: Cost = 0_1716212, Time = 3.47 sec. 
Writing OUTPUT_TOUR_FILE: "baseline_results/cvrp_lkh/Vrp-Set-D-n242/Vrp-Set-D-n242-lkh/0.lkh1.tour" ... done
* 208: Cost = 0_1715820, Time = 3.59 sec. 
Writing OUTPUT_TOUR_FILE: "baseline_results/cvrp_lkh/Vrp-Set-D-n242/Vrp-Set-D-n242-lkh/0.lkh1.tour" ... done
* 246: Cost = 0_1715209, Time = 4.39 sec. 
Writing OUTPUT_TOUR_FILE: "baseline_results/cvrp_lkh/Vrp-Set-D-n242/Vrp-Set-D-n242-lkh/0.lkh1.tour" ... done
* 247: Cost = 0_1713768, Time = 4.40 sec. 
Writing OUTPUT_TOUR_FILE: "baseline_results/cvrp_lkh/Vrp-Set-D-n242/Vrp-Set-D-n242-lkh/0.lkh1.tour" ... done
* 304: Cost = 0_1713323, Time = 5.77 sec. 
Writing OUTPUT_TOUR_FILE: "baseline_results/cvrp_lkh/Vrp-Set-D-n242/Vrp-Set-D-n242-lkh/0.lkh1.tour" ... done
* 344: Cost = 0_1711446, Time = 6.80 sec. 
Writing OUTPUT_TOUR_FILE: "baseline_results/cvrp_lkh/Vrp-Set-D-n242/Vrp-Set-D-n242-lkh/0.lkh1.tour" ... done
* 375: Cost = 0_1710205, Time = 7.34 sec. 
Writing OUTPUT_TOUR_FILE: "baseline_results/cvrp_lkh/Vrp-Set-D-n242/Vrp-Set-D-n242-lkh/0.lkh1.tour" ... done
* 381: Cost = 0_1710086, Time = 7.40 sec. 
Writing OUTPUT_TOUR_FILE: "baseline_results/cvrp_lkh/Vrp-Set-D-n242/Vrp-Set-D-n242-lkh/0.lkh1.tour" ... done
* 402: Cost = 0_1708871, Time = 7.93 sec. 
Writing OUTPUT_TOUR_FILE: "baseline_results/cvrp_lkh/Vrp-Set-D-n242/Vrp-Set-D-n242-lkh/0.lkh1.tour" ... done
* 606: Cost = 0_1708241, Time = 11.77 sec. 
Writing OUTPUT_TOUR_FILE: "baseline_results/cvrp_lkh/Vrp-Set-D-n242/Vrp-Set-D-n242-lkh/0.lkh1.tour" ... done
* 614: Cost = 0_1707320, Time = 12.07 sec. 
Writing OUTPUT_TOUR_FILE: "baseline_results/cvrp_lkh/Vrp-Set-D-n242/Vrp-Set-D-n242-lkh/0.lkh1.tour" ... done
* 620: Cost = 0_1707282, Time = 12.18 sec. 
Writing OUTPUT_TOUR_FILE: "baseline_results/cvrp_lkh/Vrp-Set-D-n242/Vrp-Set-D-n242-lkh/0.lkh1.tour" ... done
* 625: Cost = 0_1706726, Time = 12.36 sec. 
Writing OUTPUT_TOUR_FILE: "baseline_results/cvrp_lkh/Vrp-Set-D-n242/Vrp-Set-D-n242-lkh/0.lkh1.tour" ... done
* 627: Cost = 0_1706412, Time = 12.41 sec. 
Writing OUTPUT_TOUR_FILE: "baseline_results/cvrp_lkh/Vrp-Set-D-n242/Vrp-Set-D-n242-lkh/0.lkh1.tour" ... done
* 651: Cost = 0_1706398, Time = 12.92 sec. 
Writing OUTPUT_TOUR_FILE: "baseline_results/cvrp_lkh/Vrp-Set-D-n242/Vrp-Set-D-n242-lkh/0.lkh1.tour" ... done
* 668: Cost = 0_1705593, Time = 13.13 sec. 
Writing OUTPUT_TOUR_FILE: "baseline_results/cvrp_lkh/Vrp-Set-D-n242/Vrp-Set-D-n242-lkh/0.lkh1.tour" ... done
* 669: Cost = 0_1705547, Time = 13.14 sec. 
Writing OUTPUT_TOUR_FILE: "baseline_results/cvrp_lkh/Vrp-Set-D-n242/Vrp-Set-D-n242-lkh/0.lkh1.tour" ... done
* 676: Cost = 0_1705180, Time = 13.22 sec. 
Writing OUTPUT_TOUR_FILE: "baseline_results/cvrp_lkh/Vrp-Set-D-n242/Vrp-Set-D-n242-lkh/0.lkh1.tour" ... done
* 680: Cost = 0_1704640, Time = 13.27 sec. 
Writing OUTPUT_TOUR_FILE: "baseline_results/cvrp_lkh/Vrp-Set-D-n242/Vrp-Set-D-n242-lkh/0.lkh1.tour" ... done
* 693: Cost = 0_1703643, Time = 13.44 sec. 
Writing OUTPUT_TOUR_FILE: "baseline_results/cvrp_lkh/Vrp-Set-D-n242/Vrp-Set-D-n242-lkh/0.lkh1.tour" ... done
* 704: Cost = 0_1700790, Time = 13.69 sec. 
Writing OUTPUT_TOUR_FILE: "baseline_results/cvrp_lkh/Vrp-Set-D-n242/Vrp-Set-D-n242-lkh/0.lkh1.tour" ... done
* 707: Cost = 0_1700781, Time = 13.80 sec. 
Writing OUTPUT_TOUR_FILE: "baseline_results/cvrp_lkh/Vrp-Set-D-n242/Vrp-Set-D-n242-lkh/0.lkh1.tour" ... done
* 715: Cost = 0_1700482, Time = 13.93 sec. 
Writing OUTPUT_TOUR_FILE: "baseline_results/cvrp_lkh/Vrp-Set-D-n242/Vrp-Set-D-n242-lkh/0.lkh1.tour" ... done
* 717: Cost = 0_1690123, Time = 13.98 sec. 
Writing OUTPUT_TOUR_FILE: "baseline_results/cvrp_lkh/Vrp-Set-D-n242/Vrp-Set-D-n242-lkh/0.lkh1.tour" ... done
* 793: Cost = 0_1689346, Time = 15.67 sec. 
Writing OUTPUT_TOUR_FILE: "baseline_results/cvrp_lkh/Vrp-Set-D-n242/Vrp-Set-D-n242-lkh/0.lkh1.tour" ... done
* 794: Cost = 0_1689261, Time = 15.68 sec. 
Writing OUTPUT_TOUR_FILE: "baseline_results/cvrp_lkh/Vrp-Set-D-n242/Vrp-Set-D-n242-lkh/0.lkh1.tour" ... done
* 795: Cost = 0_1689150, Time = 15.69 sec. 
Writing OUTPUT_TOUR_FILE: "baseline_results/cvrp_lkh/Vrp-Set-D-n242/Vrp-Set-D-n242-lkh/0.lkh1.tour" ... done
* 816: Cost = 0_1688893, Time = 16.16 sec. 
Writing OUTPUT_TOUR_FILE: "baseline_results/cvrp_lkh/Vrp-Set-D-n242/Vrp-Set-D-n242-lkh/0.lkh1.tour" ... done
* 823: Cost = 0_1688693, Time = 16.33 sec. 
Writing OUTPUT_TOUR_FILE: "baseline_results/cvrp_lkh/Vrp-Set-D-n242/Vrp-Set-D-n242-lkh/0.lkh1.tour" ... done
* 834: Cost = 0_1688656, Time = 16.62 sec. 
Writing OUTPUT_TOUR_FILE: "baseline_results/cvrp_lkh/Vrp-Set-D-n242/Vrp-Set-D-n242-lkh/0.lkh1.tour" ... done
* 840: Cost = 0_1688026, Time = 16.82 sec. 
Writing OUTPUT_TOUR_FILE: "baseline_results/cvrp_lkh/Vrp-Set-D-n242/Vrp-Set-D-n242-lkh/0.lkh1.tour" ... done
* 916: Cost = 0_1687841, Time = 18.30 sec. 
Writing OUTPUT_TOUR_FILE: "baseline_results/cvrp_lkh/Vrp-Set-D-n242/Vrp-Set-D-n242-lkh/0.lkh1.tour" ... done
* 988: Cost = 0_1687572, Time = 19.76 sec. 
Writing OUTPUT_TOUR_FILE: "baseline_results/cvrp_lkh/Vrp-Set-D-n242/Vrp-Set-D-n242-lkh/0.lkh1.tour" ... done
* 1037: Cost = 0_1687491, Time = 20.56 sec. 
Writing OUTPUT_TOUR_FILE: "baseline_results/cvrp_lkh/Vrp-Set-D-n242/Vrp-Set-D-n242-lkh/0.lkh1.tour" ... done
* 1193: Cost = 0_1687038, Time = 23.86 sec. 
Writing OUTPUT_TOUR_FILE: "baseline_results/cvrp_lkh/Vrp-Set-D-n242/Vrp-Set-D-n242-lkh/0.lkh1.tour" ... done
* 1375: Cost = 0_1682624, Time = 26.86 sec. 
Writing OUTPUT_TOUR_FILE: "baseline_results/cvrp_lkh/Vrp-Set-D-n242/Vrp-Set-D-n242-lkh/0.lkh1.tour" ... done
* 1389: Cost = 0_1682463, Time = 27.07 sec. 
Writing OUTPUT_TOUR_FILE: "baseline_results/cvrp_lkh/Vrp-Set-D-n242/Vrp-Set-D-n242-lkh/0.lkh1.tour" ... done
* 1390: Cost = 0_1680927, Time = 27.07 sec. 
Writing OUTPUT_TOUR_FILE: "baseline_results/cvrp_lkh/Vrp-Set-D-n242/Vrp-Set-D-n242-lkh/0.lkh1.tour" ... done
* 1899: Cost = 0_1680419, Time = 35.70 sec. 
Writing OUTPUT_TOUR_FILE: "baseline_results/cvrp_lkh/Vrp-Set-D-n242/Vrp-Set-D-n242-lkh/0.lkh1.tour" ... done
* 1909: Cost = 0_1680017, Time = 35.84 sec. 
Writing OUTPUT_TOUR_FILE: "baseline_results/cvrp_lkh/Vrp-Set-D-n242/Vrp-Set-D-n242-lkh/0.lkh1.tour" ... done
* 1942: Cost = 0_1678399, Time = 36.30 sec. 
Writing OUTPUT_TOUR_FILE: "baseline_results/cvrp_lkh/Vrp-Set-D-n242/Vrp-Set-D-n242-lkh/0.lkh1.tour" ... done
* 1971: Cost = 0_1676364, Time = 36.93 sec. 
Writing OUTPUT_TOUR_FILE: "baseline_results/cvrp_lkh/Vrp-Set-D-n242/Vrp-Set-D-n242-lkh/0.lkh1.tour" ... done
* 1988: Cost = 0_1675316, Time = 37.13 sec. 
Writing OUTPUT_TOUR_FILE: "baseline_results/cvrp_lkh/Vrp-Set-D-n242/Vrp-Set-D-n242-lkh/0.lkh1.tour" ... done
* 2009: Cost = 0_1674583, Time = 37.43 sec. 
Writing OUTPUT_TOUR_FILE: "baseline_results/cvrp_lkh/Vrp-Set-D-n242/Vrp-Set-D-n242-lkh/0.lkh1.tour" ... done
* 2061: Cost = 0_1674448, Time = 38.11 sec. 
Writing OUTPUT_TOUR_FILE: "baseline_results/cvrp_lkh/Vrp-Set-D-n242/Vrp-Set-D-n242-lkh/0.lkh1.tour" ... done
* 2418: Cost = 0_1674414, Time = 44.59 sec. 
Writing OUTPUT_TOUR_FILE: "baseline_results/cvrp_lkh/Vrp-Set-D-n242/Vrp-Set-D-n242-lkh/0.lkh1.tour" ... done
* 2426: Cost = 0_1673895, Time = 44.78 sec. 
Writing OUTPUT_TOUR_FILE: "baseline_results/cvrp_lkh/Vrp-Set-D-n242/Vrp-Set-D-n242-lkh/0.lkh1.tour" ... done
* 2471: Cost = 0_1673625, Time = 45.60 sec. 
Writing OUTPUT_TOUR_FILE: "baseline_results/cvrp_lkh/Vrp-Set-D-n242/Vrp-Set-D-n242-lkh/0.lkh1.tour" ... done
* 2517: Cost = 0_1673546, Time = 46.64 sec. 
Writing OUTPUT_TOUR_FILE: "baseline_results/cvrp_lkh/Vrp-Set-D-n242/Vrp-Set-D-n242-lkh/0.lkh1.tour" ... done
* 2610: Cost = 0_1672407, Time = 48.21 sec. 
Writing OUTPUT_TOUR_FILE: "baseline_results/cvrp_lkh/Vrp-Set-D-n242/Vrp-Set-D-n242-lkh/0.lkh1.tour" ... done
* 2716: Cost = 0_1672223, Time = 49.93 sec. 
Writing OUTPUT_TOUR_FILE: "baseline_results/cvrp_lkh/Vrp-Set-D-n242/Vrp-Set-D-n242-lkh/0.lkh1.tour" ... done
* 2893: Cost = 0_1671878, Time = 53.66 sec. 
Writing OUTPUT_TOUR_FILE: "baseline_results/cvrp_lkh/Vrp-Set-D-n242/Vrp-Set-D-n242-lkh/0.lkh1.tour" ... done
* 2995: Cost = 0_1671634, Time = 55.34 sec. 
Writing OUTPUT_TOUR_FILE: "baseline_results/cvrp_lkh/Vrp-Set-D-n242/Vrp-Set-D-n242-lkh/0.lkh1.tour" ... done
* 3074: Cost = 0_1671335, Time = 56.77 sec. 
Writing OUTPUT_TOUR_FILE: "baseline_results/cvrp_lkh/Vrp-Set-D-n242/Vrp-Set-D-n242-lkh/0.lkh1.tour" ... done
* 3190: Cost = 0_1671215, Time = 59.10 sec. 
Writing OUTPUT_TOUR_FILE: "baseline_results/cvrp_lkh/Vrp-Set-D-n242/Vrp-Set-D-n242-lkh/0.lkh1.tour" ... done
* 3250: Cost = 0_1671057, Time = 60.51 sec. 
Writing OUTPUT_TOUR_FILE: "baseline_results/cvrp_lkh/Vrp-Set-D-n242/Vrp-Set-D-n242-lkh/0.lkh1.tour" ... done
* 3290: Cost = 0_1670960, Time = 61.22 sec. 
Writing OUTPUT_TOUR_FILE: "baseline_results/cvrp_lkh/Vrp-Set-D-n242/Vrp-Set-D-n242-lkh/0.lkh1.tour" ... done
* 3298: Cost = 0_1668737, Time = 61.44 sec. 
Writing OUTPUT_TOUR_FILE: "baseline_results/cvrp_lkh/Vrp-Set-D-n242/Vrp-Set-D-n242-lkh/0.lkh1.tour" ... done
* 3325: Cost = 0_1668705, Time = 62.21 sec. 
Writing OUTPUT_TOUR_FILE: "baseline_results/cvrp_lkh/Vrp-Set-D-n242/Vrp-Set-D-n242-lkh/0.lkh1.tour" ... done
* 3335: Cost = 0_1668260, Time = 62.55 sec. 
Writing OUTPUT_TOUR_FILE: "baseline_results/cvrp_lkh/Vrp-Set-D-n242/Vrp-Set-D-n242-lkh/0.lkh1.tour" ... done
* 3369: Cost = 0_1668059, Time = 63.13 sec. 
Writing OUTPUT_TOUR_FILE: "baseline_results/cvrp_lkh/Vrp-Set-D-n242/Vrp-Set-D-n242-lkh/0.lkh1.tour" ... done
* 3371: Cost = 0_1667965, Time = 63.18 sec. 
Writing OUTPUT_TOUR_FILE: "baseline_results/cvrp_lkh/Vrp-Set-D-n242/Vrp-Set-D-n242-lkh/0.lkh1.tour" ... done
* 3661: Cost = 0_1667910, Time = 70.27 sec. 
Writing OUTPUT_TOUR_FILE: "baseline_results/cvrp_lkh/Vrp-Set-D-n242/Vrp-Set-D-n242-lkh/0.lkh1.tour" ... done
* 4609: Cost = 0_1666110, Time = 89.28 sec. 
Writing OUTPUT_TOUR_FILE: "baseline_results/cvrp_lkh/Vrp-Set-D-n242/Vrp-Set-D-n242-lkh/0.lkh1.tour" ... done
* 4617: Cost = 0_1665825, Time = 89.44 sec. 
Writing OUTPUT_TOUR_FILE: "baseline_results/cvrp_lkh/Vrp-Set-D-n242/Vrp-Set-D-n242-lkh/0.lkh1.tour" ... done
* 4683: Cost = 0_1665586, Time = 90.52 sec. 
Writing OUTPUT_TOUR_FILE: "baseline_results/cvrp_lkh/Vrp-Set-D-n242/Vrp-Set-D-n242-lkh/0.lkh1.tour" ... done
* 4881: Cost = 0_1664549, Time = 93.78 sec. 
Writing OUTPUT_TOUR_FILE: "baseline_results/cvrp_lkh/Vrp-Set-D-n242/Vrp-Set-D-n242-lkh/0.lkh1.tour" ... done
* 6133: Cost = 0_1664111, Time = 122.40 sec. 
Writing OUTPUT_TOUR_FILE: "baseline_results/cvrp_lkh/Vrp-Set-D-n242/Vrp-Set-D-n242-lkh/0.lkh1.tour" ... done
* 6136: Cost = 0_1663194, Time = 122.42 sec. 
Writing OUTPUT_TOUR_FILE: "baseline_results/cvrp_lkh/Vrp-Set-D-n242/Vrp-Set-D-n242-lkh/0.lkh1.tour" ... done
* 6335: Cost = 0_1663097, Time = 126.35 sec. 
Writing OUTPUT_TOUR_FILE: "baseline_results/cvrp_lkh/Vrp-Set-D-n242/Vrp-Set-D-n242-lkh/0.lkh1.tour" ... done
* 8863: Cost = 0_1662922, Time = 178.35 sec. 
Writing OUTPUT_TOUR_FILE: "baseline_results/cvrp_lkh/Vrp-Set-D-n242/Vrp-Set-D-n242-lkh/0.lkh1.tour" ... done
* 9001: Cost = 0_1662378, Time = 181.26 sec. 
Writing OUTPUT_TOUR_FILE: "baseline_results/cvrp_lkh/Vrp-Set-D-n242/Vrp-Set-D-n242-lkh/0.lkh1.tour" ... done
Population:
  1: 0_1662378
Run 1: Cost = 0_1662378, Time = 202.18 sec. 

Successes/Runs = 0/1 
Cost.min = 1662378, Cost.avg = 1662378.00, Cost.max = 1662378
Gap.min = 0.0000%, Gap.avg = 0.0000%, Gap.max = 0.0000%
Penalty.min = 0, Penalty.avg = 0.00, Penalty.max = 0
Trials.min = 10000, Trials.avg = 10000.0, Trials.max = 10000
Time.min = 202.18 sec., Time.avg = 202.18 sec., Time.max = 202.18 sec.
Time.total = 202.30 sec.
  Size.min = 14, Size.max = 23, Penalty = 0
  Cost.min = 56594, Cost.max = 297857, Cost.sum = 1662378
Best CVRP solution:
  Cost = 0_1662378

