experiment/data/lkh-res/Vrp-Set-D-n242/Vrp-Set-D-n242-lkh/0.lkh1.tour
NAME : 0.1662378.tour
COMMENT : Length = 1662378
COMMENT : Found by LKH-3 [Keld Helsgaun] Tue Apr  9 01:16:09 2024
TYPE : TOUR
DIMENSION : 253
TOUR_SECTION
1
113
178
45
8
84
88
38
74
189
24
67
73
58
31
61
69
64
110
116
140
247
82
201
49
87
52
103
60
59
70
225
238
81
77
80
76
146
44
46
2
72
43
12
246
205
159
208
179
232
183
212
215
161
126
122
133
92
3
65
231
27
68
248
230
89
94
124
152
206
192
18
209
196
40
36
9
119
101
90
47
202
93
98
143
249
168
164
167
16
19
33
120
21
86
99
29
51
53
37
141
17
214
181
191
203
244
30
71
200
25
127
6
118
85
79
105
221
39
11
211
32
35
57
97
91
111
100
75
48
252
15
109
160
137
210
130
239
62
22
241
20
233
235
180
213
226
234
224
204
26
135
194
125
253
123
112
95
131
106
151
154
121
132
153
108
104
107
102
139
149
128
156
129
172
188
245
78
23
217
195
148
218
165
157
155
134
171
150
145
142
169
166
193
198
251
147
184
185
199
227
223
13
190
187
197
222
5
174
229
219
138
34
115
66
28
186
7
243
162
144
96
207
158
136
176
163
175
170
173
182
216
177
250
242
236
14
4
228
83
55
63
41
240
114
117
10
220
54
56
42
50
237
-1
EOF
